
(set-logic HORN)
(declare-fun Z_150 () Int)
(declare-fun S_52 (Int) Int)
(declare-fun Z_146 () Int)
(declare-fun S_51 (Int) Int)
(declare-fun diseqInt (Int Int) Bool)
(declare-fun unS_55 (Int Int) Bool)
(declare-fun isZ_52 (Int) Bool)
(declare-fun isS_52 (Int) Bool)
(assert (forall ((x_1535 Int))
	(unS_55 x_1535 (S_52 x_1535))))
(assert (isZ_52 Z_150))
(assert (forall ((x_1537 Int))
	(isS_52 (S_52 x_1537))))
(assert (forall ((x_1538 Int))
	(diseqInt Z_150 (S_52 x_1538))))
(assert (forall ((x_1539 Int))
	(diseqInt (S_52 x_1539) Z_150)))
(assert (forall ((x_1540 Int) (x_1541 Int))
	(=> (diseqInt x_1540 x_1541) (diseqInt (S_52 x_1540) (S_52 x_1541)))))
(declare-fun add_27 (Int Int Int) Bool)
(declare-fun minus_27 (Int Int Int) Bool)
(declare-fun le_27 (Int Int) Bool)
(declare-fun ge_27 (Int Int) Bool)
(declare-fun lt_27 (Int Int) Bool)
(declare-fun gt_27 (Int Int) Bool)
(declare-fun mult_27 (Int Int Int) Bool)
(declare-fun div_27 (Int Int Int) Bool)
(declare-fun mod_27 (Int Int Int) Bool)
(assert (forall ((y_119 Int))
	(add_27 y_119 Z_150 y_119)))
(assert (forall ((x_1511 Int) (y_119 Int) (r_27 Int))
	(=> (add_27 r_27 x_1511 y_119) (add_27 (S_52 r_27) (S_52 x_1511) y_119))))
(assert (forall ((y_119 Int))
	(minus_27 Z_150 Z_150 y_119)))
(assert (forall ((x_1511 Int) (y_119 Int) (r_27 Int))
	(=> (minus_27 r_27 x_1511 y_119) (minus_27 (S_52 r_27) (S_52 x_1511) y_119))))
(assert (forall ((y_119 Int))
	(le_27 Z_150 y_119)))
(assert (forall ((x_1511 Int) (y_119 Int))
	(=> (le_27 x_1511 y_119) (le_27 (S_52 x_1511) (S_52 y_119)))))
(assert (forall ((y_119 Int))
	(ge_27 y_119 Z_150)))
(assert (forall ((x_1511 Int) (y_119 Int))
	(=> (ge_27 x_1511 y_119) (ge_27 (S_52 x_1511) (S_52 y_119)))))
(assert (forall ((y_119 Int))
	(lt_27 Z_150 (S_52 y_119))))
(assert (forall ((x_1511 Int) (y_119 Int))
	(=> (lt_27 x_1511 y_119) (lt_27 (S_52 x_1511) (S_52 y_119)))))
(assert (forall ((y_119 Int))
	(gt_27 (S_52 y_119) Z_150)))
(assert (forall ((x_1511 Int) (y_119 Int))
	(=> (gt_27 x_1511 y_119) (gt_27 (S_52 x_1511) (S_52 y_119)))))
(assert (forall ((y_119 Int))
	(mult_27 Z_150 Z_150 y_119)))
(assert (forall ((x_1511 Int) (y_119 Int) (r_27 Int) (z_151 Int))
	(=> (and (mult_27 r_27 x_1511 y_119) (add_27 z_151 r_27 y_119)) (mult_27 z_151 (S_52 x_1511) y_119))))
(assert (forall ((x_1511 Int) (y_119 Int))
	(=> (lt_27 x_1511 y_119) (div_27 Z_150 x_1511 y_119))))
(assert (forall ((x_1511 Int) (y_119 Int) (r_27 Int) (z_151 Int))
	(=> (and (ge_27 x_1511 y_119) (minus_27 z_151 x_1511 y_119) (div_27 r_27 z_151 y_119)) (div_27 (S_52 r_27) x_1511 y_119))))
(assert (forall ((x_1511 Int) (y_119 Int))
	(=> (lt_27 x_1511 y_119) (mod_27 x_1511 x_1511 y_119))))
(assert (forall ((x_1511 Int) (y_119 Int) (r_27 Int) (z_151 Int))
	(=> (and (ge_27 x_1511 y_119) (minus_27 z_151 x_1511 y_119) (mod_27 r_27 z_151 y_119)) (mod_27 r_27 x_1511 y_119))))
(declare-datatypes ((list_27 0)) (((nil_27) (cons_27 (head_54 Int) (tail_54 list_27)))))
(declare-fun diseqlist_27 (list_27 list_27) Bool)
(declare-fun head_55 (Int list_27) Bool)
(declare-fun tail_55 (list_27 list_27) Bool)
(declare-fun isnil_27 (list_27) Bool)
(declare-fun iscons_27 (list_27) Bool)
(assert (forall ((x_1513 Int) (x_1514 list_27))
	(head_55 x_1513 (cons_27 x_1513 x_1514))))
(assert (forall ((x_1513 Int) (x_1514 list_27))
	(tail_55 x_1514 (cons_27 x_1513 x_1514))))
(assert (isnil_27 nil_27))
(assert (forall ((x_1516 Int) (x_1517 list_27))
	(iscons_27 (cons_27 x_1516 x_1517))))
(assert (forall ((x_1518 Int) (x_1519 list_27))
	(diseqlist_27 nil_27 (cons_27 x_1518 x_1519))))
(assert (forall ((x_1520 Int) (x_1521 list_27))
	(diseqlist_27 (cons_27 x_1520 x_1521) nil_27)))
(assert (forall ((x_1522 Int) (x_1523 list_27) (x_1524 Int) (x_1525 list_27))
	(=> (diseqInt x_1522 x_1524) (diseqlist_27 (cons_27 x_1522 x_1523) (cons_27 x_1524 x_1525)))))
(assert (forall ((x_1522 Int) (x_1523 list_27) (x_1524 Int) (x_1525 list_27))
	(=> (diseqlist_27 x_1523 x_1525) (diseqlist_27 (cons_27 x_1522 x_1523) (cons_27 x_1524 x_1525)))))
(declare-fun diseqInt (Int Int) Bool)
(declare-fun projS_49 (Int Int) Bool)
(declare-fun isZ_51 (Int) Bool)
(declare-fun isS_51 (Int) Bool)
(assert (forall ((x_1527 Int))
	(projS_49 x_1527 (S_51 x_1527))))
(assert (isZ_51 Z_146))
(assert (forall ((x_1529 Int))
	(isS_51 (S_51 x_1529))))
(assert (forall ((x_1530 Int))
	(diseqInt Z_146 (S_51 x_1530))))
(assert (forall ((x_1531 Int))
	(diseqInt (S_51 x_1531) Z_146)))
(assert (forall ((x_1532 Int) (x_1533 Int))
	(=> (diseqInt x_1532 x_1533) (diseqInt (S_51 x_1532) (S_51 x_1533)))))
(declare-fun len_6 (Int list_27) Bool)
(assert (forall ((x_1491 Int) (y_115 Int) (xs_39 list_27))
	(=> (len_6 x_1491 xs_39) (len_6 (S_51 x_1491) (cons_27 y_115 xs_39)))))
(assert (len_6 Z_146 nil_27))
(declare-fun drop_5 (list_27 Int list_27) Bool)
(assert (forall ((x_1493 list_27) (x_1483 Int) (x_1484 list_27) (z_147 Int))
	(=> (drop_5 x_1493 z_147 x_1484) (drop_5 x_1493 (S_51 z_147) (cons_27 x_1483 x_1484)))))
(assert (forall ((z_147 Int))
	(drop_5 nil_27 (S_51 z_147) nil_27)))
(assert (forall ((x_1496 list_27))
	(drop_5 x_1496 Z_146 x_1496)))
(declare-fun x_1485 (Int Int Int) Bool)
(assert (forall ((x_1497 Int) (x_1487 Int) (z_148 Int))
	(=> (x_1485 x_1497 z_148 x_1487) (x_1485 x_1497 (S_51 z_148) (S_51 x_1487)))))
(assert (forall ((z_148 Int))
	(x_1485 (S_51 z_148) (S_51 z_148) Z_146)))
(assert (forall ((y_117 Int))
	(x_1485 Z_146 Z_146 y_117)))
(declare-fun x_1488 (list_27 list_27 list_27) Bool)
(assert (forall ((x_1502 list_27) (z_149 Int) (xs_40 list_27) (y_118 list_27))
	(=> (x_1488 x_1502 xs_40 y_118) (x_1488 (cons_27 z_149 x_1502) (cons_27 z_149 xs_40) y_118))))
(assert (forall ((x_1503 list_27))
	(x_1488 x_1503 nil_27 x_1503)))
(assert (forall ((x_1504 list_27) (x_1505 list_27) (x_1506 list_27) (x_1507 Int) (x_1508 Int) (x_1509 list_27) (x_1510 list_27) (n_11 Int) (xs_41 list_27) (ys_14 list_27))
	(=> (and true (diseqlist_27 x_1505 x_1510) (x_1488 x_1504 xs_41 ys_14) (drop_5 x_1505 n_11 x_1504) (drop_5 x_1506 n_11 xs_41) (len_6 x_1507 xs_41) (x_1485 x_1508 n_11 x_1507) (drop_5 x_1509 x_1508 ys_14) (x_1488 x_1510 x_1506 x_1509)) false)))
(check-sat)
